(set-logic ALL)
(declare-fun var0 () String)
(assert (str.in_re var0 (re.++ (re.+ (re.union (str.to_re "000") (str.to_re "1"))) (re.++ (re.+ (re.* (str.to_re "22"))) (re.++ (re.union (re.+ (str.to_re "333")) (re.+ (str.to_re "4"))) (re.++ (re.+ (re.union (str.to_re "5") (str.to_re "66"))) (re.++ (re.+ (re.+ (str.to_re "777"))) (re.++ (re.* (re.+ (str.to_re "888"))) (re.++ (re.* (re.* (str.to_re "99"))) (re.++ (re.+ (re.* (str.to_re "aa"))) (re.++ (re.* (re.+ (str.to_re "b"))) (re.+ (re.* (str.to_re "ccc"))))))))))))))
(assert (<= 26 (str.len var0)))
(check-sat)